13 38
1 2 1
1 3 1
1 4 0
1 5 1
1 6 0
1 7 0
1 8 0
1 9 0
1 10 0
1 11 1
1 12 0
1 13 1
2 3 1
2 4 1
2 5 1
2 6 1
2 7 0
2 8 1
2 9 0
2 10 0
2 11 0
2 12 1
2 13 0
3 4 1
3 5 0
3 6 0
3 7 1
3 8 1
3 9 1
3 10 1
3 11 0
3 12 1
3 13 0
4 5 1
4 6 0
4 7 1
4 8 1
4 9 0
4 10 1
4 11 0
4 12 0
4 13 1
5 6 1
5 7 0
5 8 0
5 9 1
5 10 0
5 11 1
5 12 0
5 13 1
6 7 0
6 8 1
6 9 1
6 10 0
6 11 0
6 12 1
6 13 1
7 8 1
7 9 0
7 10 1
7 11 1
7 12 1
7 13 1
8 9 0
8 10 0
8 11 0
8 12 0
8 13 1
9 10 0
9 11 0
9 12 1
9 13 0
10 11 0
10 12 0
10 13 0
11 12 0
11 13 1
12 13 0
